\* Volume PredictionFebruary 2020 *\
Maximize
OBJ: 100 q0 + 66.6666666667 q1 + 100 q2 + 300 q3 + 150 q4 + 50 q5
Subject To
_C1: q0 + q1 + q2 + q3 + q4 + q5 + q6 = 100
_C2: q0 >= 4
_C3: q1 >= 4
_C4: q2 >= 4
_C5: q3 >= 4
_C6: q4 >= 4
_C7: q5 >= 4
_C8: q6 = 0
Bounds
q0 <= 50
q1 <= 50
q2 <= 50
q3 <= 50
q4 <= 50
q5 <= 50
q6 <= 50
End
